Version identifier: 12.10.0.0 | 2019-11-26 | 843d4de
CPXPARAM_WorkMem                                 16384
CPXPARAM_MIP_Limits_TreeMemory                   24576
Tried aggregator 2 times.
MIP Presolve eliminated 30 rows and 0 columns.
MIP Presolve added 60 rows and 0 columns.
Aggregator did 90 substitutions.
Reduced MIP has 182 rows, 165 columns, and 752 nonzeros.
Reduced MIP has 165 binaries, 0 generals, 0 SOSs, and 0 indicators.
Presolve time = 0,00 sec. (1,74 ticks)
Found incumbent of value 503,000000 after 0,01 sec. (1,97 ticks)
Probing time = 0,00 sec. (1,16 ticks)
Tried aggregator 1 time.
Detecting symmetries...
Reduced MIP has 182 rows, 165 columns, and 752 nonzeros.
Reduced MIP has 165 binaries, 0 generals, 0 SOSs, and 0 indicators.
Presolve time = 0,00 sec. (0,62 ticks)
Probing time = 0,00 sec. (1,16 ticks)
Clique table members: 591.
MIP emphasis: balance optimality and feasibility.
MIP search method: dynamic search.
Parallel mode: deterministic, using up to 16 threads.
Root relaxation solution time = 0,00 sec. (0,44 ticks)

        Nodes                                         Cuts/
   Node  Left     Objective  IInf  Best Integer    Best Bound    ItCnt     Gap

*     0+    0                          503,0000        0,0000           100,00%
*     0+    0                          494,0000        0,0000           100,00%
*     0+    0                          458,0000        0,0000           100,00%
      0     0      271,0000   163      458,0000      271,0000       52   40,83%
      0     0      272,0035   163      458,0000     Cuts: 148       98   40,61%
      0     0      275,3268   163      458,0000     Cuts: 148      134   39,88%
      0     0      275,7108   163      458,0000     Cuts: 147      162   39,80%
      0     0      276,0358   163      458,0000     Cuts: 146      181   39,73%
      0     0      276,4409   163      458,0000     Cuts: 145      197   39,64%
Detecting symmetries...
      0     0      276,4801   163      458,0000     Cuts: 106      205   39,63%
      0     0      276,6277   163      458,0000     Cuts: 149      224   39,60%
      0     0      276,6877   163      458,0000      Cuts: 72      235   39,59%
      0     0      276,7679   163      458,0000      Cuts: 28      250   39,57%
      0     0      276,8199   163      458,0000      Cuts: 95      261   39,56%
      0     0      276,8563   163      458,0000  ZeroHalf: 14      275   39,55%
      0     0      276,9148   163      458,0000     Cuts: 145      290   39,54%
      0     0      276,9401   163      458,0000     Cuts: 146      302   39,53%
      0     0      276,9873   163      458,0000     Cuts: 149      310   39,52%
      0     0      277,0439   163      458,0000       Cuts: 6      316   39,51%
      0     0      277,0844   163      458,0000   ZeroHalf: 4      327   39,50%
*     0+    0                          453,0000      277,0844            38,83%
*     0+    0                          447,0000      277,0844            38,01%
      0     0        cutoff            447,0000      447,0000      327    0,00%
Elapsed time = 0,28 sec. (93,90 ticks, tree = 0,01 MB, solutions = 5)

Clique cuts applied:  45
Cover cuts applied:  48
Mixed integer rounding cuts applied:  55
Zero-half cuts applied:  14
Gomory fractional cuts applied:  2

Root node processing (before b&c):
  Real time             =    0,28 sec. (93,92 ticks)
Parallel b&c, 16 threads:
  Real time             =    0,00 sec. (0,00 ticks)
  Sync time (average)   =    0,00 sec.
  Wait time (average)   =    0,00 sec.
                          ------------
Total (root+branch&cut) =    0,28 sec. (93,92 ticks)
